p cnf 200 1110
-101 -2 0
-101 67 0
-101 17 0
-101 -37 0
-101 -72 0
-101 29 0
-101 8 0
-101 44 0
-101 -16 0
-101 -22 0
101 2 -67 -17 37 72 -29 -8 -44 16 22 0
-102 -85 0
-102 -30 0
-102 78 0
-102 -10 0
-102 -59 0
-102 -62 0
-102 68 0
-102 -25 0
-102 37 0
-102 -81 0
102 85 30 -78 10 59 62 -68 25 -37 81 0
-103 13 0
-103 97 0
-103 -59 0
-103 6 0
-103 35 0
-103 39 0
-103 -74 0
-103 94 0
-103 -96 0
-103 32 0
103 -13 -97 59 -6 -35 -39 74 -94 96 -32 0
-104 -55 0
-104 8 0
-104 48 0
-104 17 0
-104 -32 0
-104 -11 0
-104 21 0
-104 -39 0
-104 66 0
-104 -86 0
104 55 -8 -48 -17 32 11 -21 39 -66 86 0
-105 -14 0
-105 -71 0
-105 -43 0
-105 -86 0
-105 -96 0
-105 -98 0
-105 53 0
-105 40 0
-105 -79 0
-105 54 0
105 14 71 43 86 96 98 -53 -40 79 -54 0
-106 -96 0
-106 66 0
-106 60 0
-106 -23 0
-106 24 0
-106 46 0
-106 -88 0
-106 26 0
-106 -41 0
-106 -42 0
106 96 -66 -60 23 -24 -46 88 -26 41 42 0
-107 -96 0
-107 65 0
-107 52 0
-107 64 0
-107 -27 0
-107 -76 0
-107 -72 0
-107 31 0
-107 -63 0
-107 -25 0
107 96 -65 -52 -64 27 76 72 -31 63 25 0
-108 86 0
-108 20 0
-108 -63 0
-108 41 0
-108 75 0
-108 -18 0
-108 -45 0
-108 28 0
-108 -65 0
-108 58 0
108 -86 -20 63 -41 -75 18 45 -28 65 -58 0
-109 -45 0
-109 76 0
-109 -50 0
-109 90 0
-109 72 0
-109 49 0
-109 59 0
-109 89 0
-109 -30 0
-109 -98 0
109 45 -76 50 -90 -72 -49 -59 -89 30 98 0
-110 22 0
-110 -29 0
-110 -76 0
-110 -95 0
-110 -68 0
-110 36 0
-110 1 0
-110 57 0
-110 -86 0
-110 3 0
110 -22 29 76 95 68 -36 -1 -57 86 -3 0
101 102 103 104 105 106 107 108 109 110 0
-111 -37 0
-111 36 0
-111 -16 0
-111 94 0
-111 -84 0
-111 -14 0
-111 -39 0
-111 15 0
-111 -45 0
-111 9 0
111 37 -36 16 -94 84 14 39 -15 45 -9 0
-112 -100 0
-112 -20 0
-112 8 0
-112 53 0
-112 -93 0
-112 47 0
-112 89 0
-112 76 0
-112 59 0
-112 -87 0
112 100 20 -8 -53 93 -47 -89 -76 -59 87 0
-113 -78 0
-113 -98 0
-113 -60 0
-113 -52 0
-113 14 0
-113 49 0
-113 -77 0
-113 51 0
-113 43 0
-113 1 0
113 78 98 60 52 -14 -49 77 -51 -43 -1 0
-114 92 0
-114 -31 0
-114 -100 0
-114 -64 0
-114 54 0
-114 -12 0
-114 -72 0
-114 66 0
-114 98 0
-114 71 0
114 -92 31 100 64 -54 12 72 -66 -98 -71 0
-115 41 0
-115 1 0
-115 44 0
-115 7 0
-115 -9 0
-115 66 0
-115 -82 0
-115 -73 0
-115 8 0
-115 -78 0
115 -41 -1 -44 -7 9 -66 82 73 -8 78 0
-116 34 0
-116 -20 0
-116 27 0
-116 -82 0
-116 13 0
-116 -94 0
-116 -26 0
-116 43 0
-116 97 0
-116 12 0
116 -34 20 -27 82 -13 94 26 -43 -97 -12 0
-117 -27 0
-117 -54 0
-117 8 0
-117 6 0
-117 -24 0
-117 -64 0
-117 -82 0
-117 -4 0
-117 72 0
-117 -2 0
117 27 54 -8 -6 24 64 82 4 -72 2 0
-118 -10 0
-118 -77 0
-118 1 0
-118 -90 0
-118 89 0
-118 4 0
-118 -19 0
-118 -28 0
-118 -81 0
-118 -33 0
118 10 77 -1 90 -89 -4 19 28 81 33 0
-119 40 0
-119 -38 0
-119 43 0
-119 -80 0
-119 69 0
-119 39 0
-119 -41 0
-119 -62 0
-119 -71 0
-119 59 0
119 -40 38 -43 80 -69 -39 41 62 71 -59 0
-120 -72 0
-120 37 0
-120 14 0
-120 -68 0
-120 -66 0
-120 64 0
-120 -55 0
-120 -74 0
-120 36 0
-120 28 0
120 72 -37 -14 68 66 -64 55 74 -36 -28 0
111 112 113 114 115 116 117 118 119 120 0
-121 83 0
-121 -7 0
-121 -23 0
-121 48 0
-121 59 0
-121 1 0
-121 51 0
-121 34 0
-121 61 0
-121 -68 0
121 -83 7 23 -48 -59 -1 -51 -34 -61 68 0
-122 -75 0
-122 40 0
-122 58 0
-122 -30 0
-122 -89 0
-122 -34 0
-122 -17 0
-122 99 0
-122 55 0
-122 -24 0
122 75 -40 -58 30 89 34 17 -99 -55 24 0
-123 100 0
-123 -1 0
-123 73 0
-123 12 0
-123 63 0
-123 24 0
-123 62 0
-123 -51 0
-123 70 0
-123 30 0
123 -100 1 -73 -12 -63 -24 -62 51 -70 -30 0
-124 -99 0
-124 -27 0
-124 -46 0
-124 28 0
-124 -73 0
-124 35 0
-124 16 0
-124 -26 0
-124 -75 0
-124 -36 0
124 99 27 46 -28 73 -35 -16 26 75 36 0
-125 12 0
-125 -35 0
-125 -37 0
-125 21 0
-125 59 0
-125 -3 0
-125 -46 0
-125 -52 0
-125 80 0
-125 86 0
125 -12 35 37 -21 -59 3 46 52 -80 -86 0
-126 -42 0
-126 -63 0
-126 43 0
-126 39 0
-126 -100 0
-126 -27 0
-126 17 0
-126 -90 0
-126 -56 0
-126 20 0
126 42 63 -43 -39 100 27 -17 90 56 -20 0
-127 68 0
-127 -83 0
-127 98 0
-127 58 0
-127 53 0
-127 10 0
-127 17 0
-127 -9 0
-127 60 0
-127 -25 0
127 -68 83 -98 -58 -53 -10 -17 9 -60 25 0
-128 61 0
-128 -29 0
-128 38 0
-128 87 0
-128 -81 0
-128 -90 0
-128 -7 0
-128 1 0
-128 -96 0
-128 53 0
128 -61 29 -38 -87 81 90 7 -1 96 -53 0
-129 -16 0
-129 31 0
-129 -99 0
-129 -21 0
-129 -65 0
-129 50 0
-129 -25 0
-129 14 0
-129 -11 0
-129 -96 0
129 16 -31 99 21 65 -50 25 -14 11 96 0
-130 -61 0
-130 -49 0
-130 7 0
-130 6 0
-130 63 0
-130 -65 0
-130 72 0
-130 93 0
-130 48 0
-130 -82 0
130 61 49 -7 -6 -63 65 -72 -93 -48 82 0
121 122 123 124 125 126 127 128 129 130 0
-131 -53 0
-131 97 0
-131 23 0
-131 31 0
-131 -21 0
-131 -69 0
-131 43 0
-131 -40 0
-131 57 0
-131 11 0
131 53 -97 -23 -31 21 69 -43 40 -57 -11 0
-132 15 0
-132 -10 0
-132 -42 0
-132 61 0
-132 -36 0
-132 -56 0
-132 -77 0
-132 -19 0
-132 68 0
-132 71 0
132 -15 10 42 -61 36 56 77 19 -68 -71 0
-133 -85 0
-133 -16 0
-133 57 0
-133 58 0
-133 41 0
-133 71 0
-133 77 0
-133 -63 0
-133 64 0
-133 94 0
133 85 16 -57 -58 -41 -71 -77 63 -64 -94 0
-134 88 0
-134 11 0
-134 31 0
-134 -7 0
-134 65 0
-134 -78 0
-134 98 0
-134 -49 0
-134 85 0
-134 68 0
134 -88 -11 -31 7 -65 78 -98 49 -85 -68 0
-135 -58 0
-135 -55 0
-135 -21 0
-135 24 0
-135 -76 0
-135 -93 0
-135 -99 0
-135 -29 0
-135 32 0
-135 65 0
135 58 55 21 -24 76 93 99 29 -32 -65 0
-136 37 0
-136 39 0
-136 -71 0
-136 35 0
-136 -40 0
-136 -86 0
-136 93 0
-136 -52 0
-136 22 0
-136 -67 0
136 -37 -39 71 -35 40 86 -93 52 -22 67 0
-137 70 0
-137 94 0
-137 -76 0
-137 -28 0
-137 -100 0
-137 45 0
-137 -69 0
-137 -19 0
-137 91 0
-137 35 0
137 -70 -94 76 28 100 -45 69 19 -91 -35 0
-138 -72 0
-138 -44 0
-138 16 0
-138 -1 0
-138 -53 0
-138 -10 0
-138 2 0
-138 83 0
-138 -36 0
-138 61 0
138 72 44 -16 1 53 10 -2 -83 36 -61 0
-139 60 0
-139 99 0
-139 -72 0
-139 -11 0
-139 88 0
-139 -87 0
-139 -77 0
-139 -53 0
-139 -64 0
-139 -26 0
139 -60 -99 72 11 -88 87 77 53 64 26 0
-140 -46 0
-140 78 0
-140 89 0
-140 -22 0
-140 19 0
-140 100 0
-140 -38 0
-140 -32 0
-140 -67 0
-140 16 0
140 46 -78 -89 22 -19 -100 38 32 67 -16 0
131 132 133 134 135 136 137 138 139 140 0
-141 -87 0
-141 -99 0
-141 46 0
-141 -93 0
-141 100 0
-141 41 0
-141 13 0
-141 -17 0
-141 -71 0
-141 -50 0
141 87 99 -46 93 -100 -41 -13 17 71 50 0
-142 23 0
-142 45 0
-142 -80 0
-142 96 0
-142 46 0
-142 76 0
-142 -69 0
-142 70 0
-142 -92 0
-142 -90 0
142 -23 -45 80 -96 -46 -76 69 -70 92 90 0
-143 -81 0
-143 -7 0
-143 -1 0
-143 50 0
-143 53 0
-143 -55 0
-143 36 0
-143 -18 0
-143 10 0
-143 -28 0
143 81 7 1 -50 -53 55 -36 18 -10 28 0
-144 -95 0
-144 -45 0
-144 -77 0
-144 46 0
-144 -54 0
-144 -47 0
-144 -12 0
-144 -91 0
-144 48 0
-144 -69 0
144 95 45 77 -46 54 47 12 91 -48 69 0
-145 -79 0
-145 -27 0
-145 57 0
-145 54 0
-145 68 0
-145 4 0
-145 -92 0
-145 38 0
-145 -89 0
-145 50 0
145 79 27 -57 -54 -68 -4 92 -38 89 -50 0
-146 -30 0
-146 -50 0
-146 34 0
-146 96 0
-146 -17 0
-146 -1 0
-146 -64 0
-146 85 0
-146 6 0
-146 84 0
146 30 50 -34 -96 17 1 64 -85 -6 -84 0
-147 -58 0
-147 -23 0
-147 70 0
-147 18 0
-147 -3 0
-147 67 0
-147 84 0
-147 -61 0
-147 25 0
-147 34 0
147 58 23 -70 -18 3 -67 -84 61 -25 -34 0
-148 13 0
-148 -75 0
-148 35 0
-148 41 0
-148 -10 0
-148 -89 0
-148 -12 0
-148 -93 0
-148 77 0
-148 51 0
148 -13 75 -35 -41 10 89 12 93 -77 -51 0
-149 77 0
-149 -91 0
-149 -68 0
-149 81 0
-149 87 0
-149 61 0
-149 11 0
-149 79 0
-149 86 0
-149 43 0
149 -77 91 68 -81 -87 -61 -11 -79 -86 -43 0
-150 26 0
-150 73 0
-150 70 0
-150 -31 0
-150 -28 0
-150 59 0
-150 17 0
-150 96 0
-150 88 0
-150 -2 0
150 -26 -73 -70 31 28 -59 -17 -96 -88 2 0
141 142 143 144 145 146 147 148 149 150 0
-151 -84 0
-151 -69 0
-151 -99 0
-151 7 0
-151 60 0
-151 -22 0
-151 58 0
-151 87 0
-151 -45 0
-151 52 0
151 84 69 99 -7 -60 22 -58 -87 45 -52 0
-152 43 0
-152 14 0
-152 -39 0
-152 -71 0
-152 -5 0
-152 79 0
-152 52 0
-152 29 0
-152 40 0
-152 -30 0
152 -43 -14 39 71 5 -79 -52 -29 -40 30 0
-153 -55 0
-153 -48 0
-153 -29 0
-153 2 0
-153 -45 0
-153 -6 0
-153 36 0
-153 50 0
-153 99 0
-153 27 0
153 55 48 29 -2 45 6 -36 -50 -99 -27 0
-154 85 0
-154 94 0
-154 -37 0
-154 -21 0
-154 -2 0
-154 90 0
-154 -32 0
-154 88 0
-154 47 0
-154 -39 0
154 -85 -94 37 21 2 -90 32 -88 -47 39 0
-155 28 0
-155 30 0
-155 -77 0
-155 -12 0
-155 62 0
-155 83 0
-155 78 0
-155 86 0
-155 -47 0
-155 -65 0
155 -28 -30 77 12 -62 -83 -78 -86 47 65 0
-156 69 0
-156 71 0
-156 74 0
-156 -73 0
-156 -80 0
-156 38 0
-156 -2 0
-156 -76 0
-156 41 0
-156 -52 0
156 -69 -71 -74 73 80 -38 2 76 -41 52 0
-157 77 0
-157 99 0
-157 -79 0
-157 -69 0
-157 54 0
-157 -50 0
-157 -95 0
-157 -80 0
-157 -51 0
-157 100 0
157 -77 -99 79 69 -54 50 95 80 51 -100 0
-158 87 0
-158 -94 0
-158 55 0
-158 -100 0
-158 24 0
-158 -60 0
-158 77 0
-158 65 0
-158 -17 0
-158 52 0
158 -87 94 -55 100 -24 60 -77 -65 17 -52 0
-159 -94 0
-159 95 0
-159 -93 0
-159 -75 0
-159 78 0
-159 -32 0
-159 -69 0
-159 21 0
-159 -99 0
-159 -43 0
159 94 -95 93 75 -78 32 69 -21 99 43 0
-160 -75 0
-160 -14 0
-160 -76 0
-160 -87 0
-160 -67 0
-160 50 0
-160 7 0
-160 -9 0
-160 1 0
-160 2 0
160 75 14 76 87 67 -50 -7 9 -1 -2 0
151 152 153 154 155 156 157 158 159 160 0
-161 81 0
-161 35 0
-161 -31 0
-161 -95 0
-161 50 0
-161 69 0
-161 -53 0
-161 79 0
-161 -83 0
-161 22 0
161 -81 -35 31 95 -50 -69 53 -79 83 -22 0
-162 67 0
-162 -82 0
-162 30 0
-162 25 0
-162 34 0
-162 -8 0
-162 -16 0
-162 81 0
-162 29 0
-162 9 0
162 -67 82 -30 -25 -34 8 16 -81 -29 -9 0
-163 -65 0
-163 2 0
-163 19 0
-163 -93 0
-163 21 0
-163 -41 0
-163 -4 0
-163 20 0
-163 42 0
-163 -63 0
163 65 -2 -19 93 -21 41 4 -20 -42 63 0
-164 4 0
-164 -98 0
-164 -31 0
-164 30 0
-164 75 0
-164 51 0
-164 74 0
-164 -95 0
-164 46 0
-164 20 0
164 -4 98 31 -30 -75 -51 -74 95 -46 -20 0
-165 -86 0
-165 38 0
-165 -84 0
-165 31 0
-165 -53 0
-165 -56 0
-165 62 0
-165 51 0
-165 78 0
-165 -91 0
165 86 -38 84 -31 53 56 -62 -51 -78 91 0
-166 -5 0
-166 61 0
-166 -63 0
-166 16 0
-166 76 0
-166 -27 0
-166 -24 0
-166 59 0
-166 -26 0
-166 53 0
166 5 -61 63 -16 -76 27 24 -59 26 -53 0
-167 -14 0
-167 67 0
-167 -100 0
-167 -74 0
-167 -25 0
-167 -27 0
-167 -80 0
-167 -79 0
-167 90 0
-167 5 0
167 14 -67 100 74 25 27 80 79 -90 -5 0
-168 30 0
-168 76 0
-168 97 0
-168 3 0
-168 -55 0
-168 -24 0
-168 87 0
-168 -40 0
-168 53 0
-168 -36 0
168 -30 -76 -97 -3 55 24 -87 40 -53 36 0
-169 88 0
-169 18 0
-169 -64 0
-169 96 0
-169 -97 0
-169 -51 0
-169 -91 0
-169 69 0
-169 -63 0
-169 83 0
169 -88 -18 64 -96 97 51 91 -69 63 -83 0
-170 70 0
-170 5 0
-170 -90 0
-170 -79 0
-170 -45 0
-170 41 0
-170 -91 0
-170 65 0
-170 20 0
-170 33 0
170 -70 -5 90 79 45 -41 91 -65 -20 -33 0
161 162 163 164 165 166 167 168 169 170 0
-171 6 0
-171 42 0
-171 -4 0
-171 40 0
-171 -98 0
-171 9 0
-171 27 0
-171 -15 0
-171 -11 0
-171 65 0
171 -6 -42 4 -40 98 -9 -27 15 11 -65 0
-172 -62 0
-172 55 0
-172 8 0
-172 -38 0
-172 68 0
-172 -75 0
-172 -44 0
-172 13 0
-172 45 0
-172 78 0
172 62 -55 -8 38 -68 75 44 -13 -45 -78 0
-173 -49 0
-173 -75 0
-173 -41 0
-173 72 0
-173 50 0
-173 83 0
-173 52 0
-173 -17 0
-173 -89 0
-173 79 0
173 49 75 41 -72 -50 -83 -52 17 89 -79 0
-174 20 0
-174 -14 0
-174 -77 0
-174 -70 0
-174 -1 0
-174 6 0
-174 64 0
-174 -56 0
-174 -3 0
-174 -65 0
174 -20 14 77 70 1 -6 -64 56 3 65 0
-175 -49 0
-175 95 0
-175 30 0
-175 31 0
-175 -62 0
-175 -84 0
-175 1 0
-175 97 0
-175 -23 0
-175 24 0
175 49 -95 -30 -31 62 84 -1 -97 23 -24 0
-176 -59 0
-176 -35 0
-176 89 0
-176 99 0
-176 97 0
-176 -76 0
-176 12 0
-176 27 0
-176 37 0
-176 -5 0
176 59 35 -89 -99 -97 76 -12 -27 -37 5 0
-177 -45 0
-177 -37 0
-177 52 0
-177 10 0
-177 -100 0
-177 -3 0
-177 48 0
-177 -46 0
-177 -90 0
-177 8 0
177 45 37 -52 -10 100 3 -48 46 90 -8 0
-178 -14 0
-178 86 0
-178 -99 0
-178 71 0
-178 -97 0
-178 22 0
-178 49 0
-178 -43 0
-178 76 0
-178 31 0
178 14 -86 99 -71 97 -22 -49 43 -76 -31 0
-179 -46 0
-179 95 0
-179 68 0
-179 -63 0
-179 -82 0
-179 -39 0
-179 50 0
-179 7 0
-179 -22 0
-179 97 0
179 46 -95 -68 63 82 39 -50 -7 22 -97 0
-180 -77 0
-180 16 0
-180 1 0
-180 -5 0
-180 -30 0
-180 -49 0
-180 -7 0
-180 25 0
-180 -21 0
-180 -29 0
180 77 -16 -1 5 30 49 7 -25 21 29 0
171 172 173 174 175 176 177 178 179 180 0
-181 78 0
-181 54 0
-181 21 0
-181 -61 0
-181 41 0
-181 58 0
-181 73 0
-181 -30 0
-181 39 0
-181 -17 0
181 -78 -54 -21 61 -41 -58 -73 30 -39 17 0
-182 21 0
-182 -67 0
-182 62 0
-182 60 0
-182 44 0
-182 -100 0
-182 -30 0
-182 51 0
-182 -81 0
-182 -96 0
182 -21 67 -62 -60 -44 100 30 -51 81 96 0
-183 65 0
-183 13 0
-183 -77 0
-183 72 0
-183 81 0
-183 -17 0
-183 79 0
-183 75 0
-183 44 0
-183 14 0
183 -65 -13 77 -72 -81 17 -79 -75 -44 -14 0
-184 -78 0
-184 11 0
-184 74 0
-184 -36 0
-184 18 0
-184 -98 0
-184 -89 0
-184 99 0
-184 -30 0
-184 -66 0
184 78 -11 -74 36 -18 98 89 -99 30 66 0
-185 76 0
-185 -99 0
-185 -59 0
-185 13 0
-185 81 0
-185 -62 0
-185 -23 0
-185 17 0
-185 94 0
-185 43 0
185 -76 99 59 -13 -81 62 23 -17 -94 -43 0
-186 -95 0
-186 -20 0
-186 55 0
-186 -22 0
-186 21 0
-186 64 0
-186 -38 0
-186 -77 0
-186 2 0
-186 -25 0
186 95 20 -55 22 -21 -64 38 77 -2 25 0
-187 8 0
-187 -21 0
-187 92 0
-187 -65 0
-187 91 0
-187 -62 0
-187 -69 0
-187 -22 0
-187 -58 0
-187 -73 0
187 -8 21 -92 65 -91 62 69 22 58 73 0
-188 69 0
-188 -80 0
-188 -5 0
-188 73 0
-188 -39 0
-188 -26 0
-188 -83 0
-188 -65 0
-188 -77 0
-188 49 0
188 -69 80 5 -73 39 26 83 65 77 -49 0
-189 -55 0
-189 -96 0
-189 87 0
-189 48 0
-189 -45 0
-189 -81 0
-189 -59 0
-189 16 0
-189 75 0
-189 39 0
189 55 96 -87 -48 45 81 59 -16 -75 -39 0
-190 55 0
-190 57 0
-190 -37 0
-190 -81 0
-190 85 0
-190 -67 0
-190 -11 0
-190 49 0
-190 -5 0
-190 70 0
190 -55 -57 37 81 -85 67 11 -49 5 -70 0
181 182 183 184 185 186 187 188 189 190 0
-191 -17 0
-191 -21 0
-191 88 0
-191 -30 0
-191 28 0
-191 -2 0
-191 -91 0
-191 -8 0
-191 75 0
-191 13 0
191 17 21 -88 30 -28 2 91 8 -75 -13 0
-192 64 0
-192 7 0
-192 5 0
-192 -19 0
-192 -60 0
-192 73 0
-192 -47 0
-192 -92 0
-192 84 0
-192 37 0
192 -64 -7 -5 19 60 -73 47 92 -84 -37 0
-193 13 0
-193 94 0
-193 -66 0
-193 -72 0
-193 -25 0
-193 42 0
-193 -52 0
-193 9 0
-193 50 0
-193 8 0
193 -13 -94 66 72 25 -42 52 -9 -50 -8 0
-194 43 0
-194 5 0
-194 -26 0
-194 7 0
-194 -77 0
-194 47 0
-194 76 0
-194 6 0
-194 -75 0
-194 -65 0
194 -43 -5 26 -7 77 -47 -76 -6 75 65 0
-195 -78 0
-195 84 0
-195 -3 0
-195 -77 0
-195 -54 0
-195 -56 0
-195 14 0
-195 44 0
-195 -97 0
-195 73 0
195 78 -84 3 77 54 56 -14 -44 97 -73 0
-196 -82 0
-196 -2 0
-196 19 0
-196 71 0
-196 5 0
-196 67 0
-196 36 0
-196 -95 0
-196 -24 0
-196 -83 0
196 82 2 -19 -71 -5 -67 -36 95 24 83 0
-197 58 0
-197 87 0
-197 -93 0
-197 18 0
-197 -44 0
-197 -43 0
-197 68 0
-197 -84 0
-197 100 0
-197 20 0
197 -58 -87 93 -18 44 43 -68 84 -100 -20 0
-198 97 0
-198 -42 0
-198 13 0
-198 -100 0
-198 64 0
-198 14 0
-198 25 0
-198 -27 0
-198 -35 0
-198 -7 0
198 -97 42 -13 100 -64 -14 -25 27 35 7 0
-199 -19 0
-199 -43 0
-199 35 0
-199 30 0
-199 -1 0
-199 -89 0
-199 94 0
-199 21 0
-199 -27 0
-199 -18 0
199 19 43 -35 -30 1 89 -94 -21 27 18 0
-200 -18 0
-200 -63 0
-200 -78 0
-200 6 0
-200 -44 0
-200 -74 0
-200 -42 0
-200 79 0
-200 -90 0
-200 -48 0
200 18 63 78 -6 44 74 42 -79 90 48 0
191 192 193 194 195 196 197 198 199 200 0
